14133
1 0 1 0 0 1 0 0 0 1 0 1 0 1 1 0 0 1 0 1 1 1 0 0 1 0 0 1 0 0 
20 11 13 2 20 5 2 9 14 17 9 20 20 20 17 14 14 17 5 11 2 0 5 17 5 20 19 24 5 24 5 11 13 11 20 20 24 24 0 14 0 14 24 14 24 14 0 13 27 14 5 14 14 5 13 20 17 11 0 14 0 5 20 11 11 11 9 0 5 9 20 20 11 17 24 20 9 20 14 24 20 0 13 17 17 17 17 0 20 5 2 24 0 11 0 5 2 2 21 13 20 0 14 11 2 5 0 11 14 14 14 14 2 11 11 21 24 24 24 24 5 20 11 13 20 0 5 9 0 21 0 11 24 5 20 14 0 5 20 0 0 20 20 14 20 27 11 5 2 5 

Total Run Time: 265393 ms.
